(set-logic QF_BV)

(declare-const __ESBMC_ptr_obj_start_0 (_ BitVec 64))

(declare-const __ESBMC_ptr_obj_end_0 (_ BitVec 64))

(declare-const __ESBMC_ptr_obj_start_1 (_ BitVec 64))

(declare-const __ESBMC_ptr_obj_end_1 (_ BitVec 64))

(declare-const |smt_conv::__ESBMC_ptr_addr_range_0..start0| (_ BitVec 64))

(declare-const |smt_conv::__ESBMC_ptr_addr_range_0..end0| (_ BitVec 64))

(declare-const |smt_conv::__ESBMC_ptr_addr_range_1..start0| (_ BitVec 64))

(declare-const |smt_conv::__ESBMC_ptr_addr_range_1..end0| (_ BitVec 64))

(declare-const |smt_conv::smt_conv::collate_array_vals::3..start0| (_ BitVec 64))

(declare-const |smt_conv::smt_conv::collate_array_vals::3..end0| (_ BitVec 64))

(declare-const |smt_conv::smt_conv::collate_array_vals::4..start0| (_ BitVec 64))

(declare-const |smt_conv::smt_conv::collate_array_vals::4..end0| (_ BitVec 64))

(declare-const |smt_conv::smt_conv::collate_array_vals::7..start0| (_ BitVec 64))

(declare-const |smt_conv::smt_conv::collate_array_vals::7..end0| (_ BitVec 64))

(declare-const |c:byte_add_1-1.i@4460@F@main@b?1!0&0#1| (_ BitVec 32))

(declare-const |nondet$symex::nondet48| (_ BitVec 32))

(declare-const |c:byte_add_1-1.i@1817@F@mp_add@b?1!0&0#1| (_ BitVec 32))

(declare-const |c:byte_add_1-1.i@1873@F@mp_add@b0?1!0&0#1| (_ BitVec 8))

(declare-const |c:byte_add_1-1.i@1873@F@mp_add@b1?1!0&0#1| (_ BitVec 8))

(declare-const |c:byte_add_1-1.i@1873@F@mp_add@b2?1!0&0#1| (_ BitVec 8))

(declare-const |c:byte_add_1-1.i@1873@F@mp_add@b3?1!0&0#1| (_ BitVec 8))

(declare-const |goto_symex::guard?0!0&0#1| (_ BitVec 1))

(declare-const |goto_symex::guard?0!0&0#2| (_ BitVec 1))

(declare-const |goto_symex::guard?0!0&0#3| (_ BitVec 1))

(declare-const |c:byte_add_1-1.i@2040@F@mp_add@nb?1!0&0#5| (_ BitVec 8))

(declare-const |c:byte_add_1-1.i@2040@F@mp_add@nb?1!0&0#6| (_ BitVec 8))

(declare-const |c:byte_add_1-1.i@2040@F@mp_add@nb?1!0&0#7| (_ BitVec 8))

(declare-const |goto_symex::guard?0!0&0#4| (_ BitVec 1))

(declare-const |c:byte_add_1-1.i@1967@F@mp_add@partial_sum?1!0&0#3| (_ BitVec 16))

(declare-const |c:byte_add_1-1.i@1967@F@mp_add@partial_sum?1!0&0#4| (_ BitVec 16))

(declare-const |goto_symex::guard?0!0&0#5| (_ BitVec 1))

(declare-const |c:byte_add_1-1.i@1967@F@mp_add@partial_sum?1!0&0#5| (_ BitVec 16))

(declare-const |c:byte_add_1-1.i@1941@F@mp_add@carry?1!0&0#4| (_ BitVec 16))

(declare-const |c:byte_add_1-1.i@1967@F@mp_add@partial_sum?1!0&0#6| (_ BitVec 16))

(declare-const |c:byte_add_1-1.i@1907@F@mp_add@r0?1!0&0#1| (_ BitVec 8))

(declare-const |c:byte_add_1-1.i@1967@F@mp_add@partial_sum?1!0&0#7| (_ BitVec 16))

(declare-const |c:byte_add_1-1.i@1967@F@mp_add@partial_sum?1!0&0#8| (_ BitVec 16))

(declare-const |goto_symex::guard?0!0&0#6| (_ BitVec 1))

(declare-const |c:byte_add_1-1.i@1967@F@mp_add@partial_sum?1!0&0#9| (_ BitVec 16))

(declare-const |c:byte_add_1-1.i@1967@F@mp_add@partial_sum?1!0&0#10| (_ BitVec 16))

(declare-const |goto_symex::guard?0!0&0#7| (_ BitVec 1))

(declare-const |c:byte_add_1-1.i@1967@F@mp_add@partial_sum?1!0&0#11| (_ BitVec 16))

(declare-const |c:byte_add_1-1.i@1941@F@mp_add@carry?1!0&0#7| (_ BitVec 16))

(declare-const |c:byte_add_1-1.i@1967@F@mp_add@partial_sum?1!0&0#12| (_ BitVec 16))

(declare-const |c:byte_add_1-1.i@1907@F@mp_add@r1?1!0&0#1| (_ BitVec 8))

(declare-const |c:byte_add_1-1.i@1967@F@mp_add@partial_sum?1!0&0#13| (_ BitVec 16))

(declare-const |c:byte_add_1-1.i@1967@F@mp_add@partial_sum?1!0&0#14| (_ BitVec 16))

(declare-const |goto_symex::guard?0!0&0#8| (_ BitVec 1))

(declare-const |c:byte_add_1-1.i@1967@F@mp_add@partial_sum?1!0&0#15| (_ BitVec 16))

(declare-const |c:byte_add_1-1.i@1967@F@mp_add@partial_sum?1!0&0#16| (_ BitVec 16))

(declare-const |goto_symex::guard?0!0&0#9| (_ BitVec 1))

(declare-const |c:byte_add_1-1.i@1967@F@mp_add@partial_sum?1!0&0#17| (_ BitVec 16))

(declare-const |c:byte_add_1-1.i@1941@F@mp_add@carry?1!0&0#10| (_ BitVec 16))

(declare-const |c:byte_add_1-1.i@1967@F@mp_add@partial_sum?1!0&0#18| (_ BitVec 16))

(declare-const |c:byte_add_1-1.i@1907@F@mp_add@r2?1!0&0#1| (_ BitVec 8))

(declare-const |c:byte_add_1-1.i@1967@F@mp_add@partial_sum?1!0&0#19| (_ BitVec 16))

(declare-const |c:byte_add_1-1.i@1967@F@mp_add@partial_sum?1!0&0#20| (_ BitVec 16))

(declare-const |goto_symex::guard?0!0&0#10| (_ BitVec 1))

(declare-const |c:byte_add_1-1.i@1967@F@mp_add@partial_sum?1!0&0#21| (_ BitVec 16))

(declare-const |c:byte_add_1-1.i@1967@F@mp_add@partial_sum?1!0&0#22| (_ BitVec 16))

(declare-const |goto_symex::guard?0!0&0#11| (_ BitVec 1))

(declare-const |c:byte_add_1-1.i@1967@F@mp_add@partial_sum?1!0&0#23| (_ BitVec 16))

(declare-const |c:byte_add_1-1.i@1941@F@mp_add@carry?1!0&0#13| (_ BitVec 16))

(declare-const |c:byte_add_1-1.i@1967@F@mp_add@partial_sum?1!0&0#24| (_ BitVec 16))

(declare-const |c:byte_add_1-1.i@1907@F@mp_add@r3?1!0&0#1| (_ BitVec 8))

(declare-const |goto_symex::guard?0!0&0#12| (_ BitVec 1))

(declare-const |execution_statet::guard_exec?0!0| (_ BitVec 1))

(declare-const |c:byte_add_1-1.i@1999@F@mp_add@r?1!0&0#1| (_ BitVec 32))

(declare-const |c:byte_add_1-1.i@4460@F@main@r?1!0&0#1| (_ BitVec 32))

(declare-const |c:byte_add_1-1.i@1127@F@__VERIFIER_assert@cond?1!0&0#1| (_ BitVec 32))

(declare-const |goto_symex::guard?0!0&0#15| (_ BitVec 1))

(define-fun $e1 () (_ BitVec 32) 

 (concat #b000000000000000000000000 |c:byte_add_1-1.i@2040@F@mp_add@nb?1!0&0#7|))

(assert 

 (= __ESBMC_ptr_obj_start_0 #b0000000000000000000000000000000000000000000000000000000000000000))

(assert 

 (= #b0000000000000000000000000000000000000000000000000000000000000000 __ESBMC_ptr_obj_end_0))

(assert 

 (= __ESBMC_ptr_obj_start_1 #b0000000000000000000000000000000000000000000000000000000000000001))

(assert 

 (= #b1111111111111111111111111111111111111111111111111111111111111111 __ESBMC_ptr_obj_end_1))

(assert 

 (= __ESBMC_ptr_obj_end_0 |smt_conv::__ESBMC_ptr_addr_range_0..end0|))

(assert 

 (= __ESBMC_ptr_obj_start_0 |smt_conv::__ESBMC_ptr_addr_range_0..start0|))

(assert 

 (= __ESBMC_ptr_obj_end_1 |smt_conv::__ESBMC_ptr_addr_range_1..end0|))

(assert 

 (= __ESBMC_ptr_obj_start_1 |smt_conv::__ESBMC_ptr_addr_range_1..start0|))

(assert 

 (= |smt_conv::smt_conv::collate_array_vals::3..end0| |smt_conv::smt_conv::collate_array_vals::4..end0|))

(assert 

 (= |smt_conv::smt_conv::collate_array_vals::3..start0| |smt_conv::smt_conv::collate_array_vals::4..start0|))

(assert 

 (= __ESBMC_ptr_obj_end_0 |smt_conv::smt_conv::collate_array_vals::7..end0|))

(assert 

 (= __ESBMC_ptr_obj_start_0 |smt_conv::smt_conv::collate_array_vals::7..start0|))

(assert 

 (= |c:byte_add_1-1.i@4460@F@main@b?1!0&0#1| |nondet$symex::nondet48|))

(assert 

 (= |c:byte_add_1-1.i@4460@F@main@b?1!0&0#1| |c:byte_add_1-1.i@1817@F@mp_add@b?1!0&0#1|))

(assert 

 (= |c:byte_add_1-1.i@1873@F@mp_add@b0?1!0&0#1| 

  ((_ extract 7 0) |c:byte_add_1-1.i@1817@F@mp_add@b?1!0&0#1|)))

(assert 

 (= |c:byte_add_1-1.i@1873@F@mp_add@b1?1!0&0#1| 

  ((_ extract 15 8) |c:byte_add_1-1.i@1817@F@mp_add@b?1!0&0#1|)))

(assert 

 (= |c:byte_add_1-1.i@1873@F@mp_add@b2?1!0&0#1| 

  ((_ extract 23 16) |c:byte_add_1-1.i@1817@F@mp_add@b?1!0&0#1|)))

(assert 

 (= |c:byte_add_1-1.i@1873@F@mp_add@b3?1!0&0#1| 

  ((_ extract 31 24) |c:byte_add_1-1.i@1817@F@mp_add@b?1!0&0#1|)))

(assert 

 (= |goto_symex::guard?0!0&0#1| 

  (ite 

   (= #b00000000 |c:byte_add_1-1.i@1873@F@mp_add@b3?1!0&0#1|) #b1 #b0)))

(assert 

 (= |goto_symex::guard?0!0&0#2| 

  (ite 

   (= #b00000000 |c:byte_add_1-1.i@1873@F@mp_add@b2?1!0&0#1|) #b1 #b0)))

(assert 

 (= |goto_symex::guard?0!0&0#3| 

  (ite 

   (= |c:byte_add_1-1.i@1873@F@mp_add@b1?1!0&0#1| #b00000000) #b1 #b0)))

(assert 

 (= |c:byte_add_1-1.i@2040@F@mp_add@nb?1!0&0#5| 

  (ite 

   (= #b1 |goto_symex::guard?0!0&0#3|) #b00000001 #b00000010)))

(assert 

 (= |c:byte_add_1-1.i@2040@F@mp_add@nb?1!0&0#6| 

  (ite 

   (= #b1 |goto_symex::guard?0!0&0#2|) |c:byte_add_1-1.i@2040@F@mp_add@nb?1!0&0#5| #b00000011)))

(assert 

 (= |c:byte_add_1-1.i@2040@F@mp_add@nb?1!0&0#7| 

  (ite 

   (= #b1 |goto_symex::guard?0!0&0#1|) |c:byte_add_1-1.i@2040@F@mp_add@nb?1!0&0#6| #b00000100)))

(assert 

 (= |goto_symex::guard?0!0&0#4| 

  (ite 

   (bvslt #b00000000000000000000000000000000 $e1) #b1 #b0)))

(assert 

 (= |c:byte_add_1-1.i@1967@F@mp_add@partial_sum?1!0&0#3| 

  ((_ extract 15 0) 

   (bvadd #b00000000000000000000000001100101 

    (concat #b000000000000000000000000 |c:byte_add_1-1.i@1873@F@mp_add@b0?1!0&0#1|)))))

(assert 

 (= |c:byte_add_1-1.i@1967@F@mp_add@partial_sum?1!0&0#4| 

  (ite 

   (= #b1 |goto_symex::guard?0!0&0#4|) |c:byte_add_1-1.i@1967@F@mp_add@partial_sum?1!0&0#3| #b0000000001100101)))

(assert 

 (= |goto_symex::guard?0!0&0#5| 

  (ite 

   (bvslt #b00000000000000000000000011111111 

    (concat #b0000000000000000 |c:byte_add_1-1.i@1967@F@mp_add@partial_sum?1!0&0#4|)) #b1 #b0)))

(assert 

 (= |c:byte_add_1-1.i@1967@F@mp_add@partial_sum?1!0&0#5| 

  (bvand |c:byte_add_1-1.i@1967@F@mp_add@partial_sum?1!0&0#4| #b0000000011111111)))

(assert 

 (= |c:byte_add_1-1.i@1941@F@mp_add@carry?1!0&0#4| 

  (ite 

   (= #b1 |goto_symex::guard?0!0&0#5|) #b0000000000000001 #b0000000000000000)))

(assert 

 (= |c:byte_add_1-1.i@1967@F@mp_add@partial_sum?1!0&0#6| 

  (ite 

   (= #b1 |goto_symex::guard?0!0&0#5|) |c:byte_add_1-1.i@1967@F@mp_add@partial_sum?1!0&0#5| |c:byte_add_1-1.i@1967@F@mp_add@partial_sum?1!0&0#4|)))

(assert 

 (= |c:byte_add_1-1.i@1907@F@mp_add@r0?1!0&0#1| 

  ((_ extract 7 0) |c:byte_add_1-1.i@1967@F@mp_add@partial_sum?1!0&0#6|)))

(assert 

 (= |c:byte_add_1-1.i@1941@F@mp_add@carry?1!0&0#4| |c:byte_add_1-1.i@1967@F@mp_add@partial_sum?1!0&0#7|))

(assert 

 (= |c:byte_add_1-1.i@1967@F@mp_add@partial_sum?1!0&0#8| 

  ((_ extract 15 0) 

   (bvadd 

    (concat #b0000000000000000 |c:byte_add_1-1.i@1967@F@mp_add@partial_sum?1!0&0#7|) #b00000000000000000000000001010001))))

(assert 

 (= |goto_symex::guard?0!0&0#6| 

  (ite 

   (bvslt #b00000000000000000000000000000001 $e1) #b1 #b0)))

(assert 

 (= |c:byte_add_1-1.i@1967@F@mp_add@partial_sum?1!0&0#9| 

  ((_ extract 15 0) 

   (bvadd 

    (concat #b000000000000000000000000 |c:byte_add_1-1.i@1873@F@mp_add@b1?1!0&0#1|) 

    (concat #b0000000000000000 |c:byte_add_1-1.i@1967@F@mp_add@partial_sum?1!0&0#8|)))))

(assert 

 (= |c:byte_add_1-1.i@1967@F@mp_add@partial_sum?1!0&0#10| 

  (ite 

   (= #b1 |goto_symex::guard?0!0&0#6|) |c:byte_add_1-1.i@1967@F@mp_add@partial_sum?1!0&0#9| |c:byte_add_1-1.i@1967@F@mp_add@partial_sum?1!0&0#8|)))

(assert 

 (= |goto_symex::guard?0!0&0#7| 

  (ite 

   (bvslt #b00000000000000000000000011111111 

    (concat #b0000000000000000 |c:byte_add_1-1.i@1967@F@mp_add@partial_sum?1!0&0#10|)) #b1 #b0)))

(assert 

 (= |c:byte_add_1-1.i@1967@F@mp_add@partial_sum?1!0&0#11| 

  (bvand #b0000000011111111 |c:byte_add_1-1.i@1967@F@mp_add@partial_sum?1!0&0#10|)))

(assert 

 (= |c:byte_add_1-1.i@1941@F@mp_add@carry?1!0&0#7| 

  (ite 

   (= #b1 |goto_symex::guard?0!0&0#7|) #b0000000000000001 #b0000000000000000)))

(assert 

 (= |c:byte_add_1-1.i@1967@F@mp_add@partial_sum?1!0&0#12| 

  (ite 

   (= #b1 |goto_symex::guard?0!0&0#7|) |c:byte_add_1-1.i@1967@F@mp_add@partial_sum?1!0&0#11| |c:byte_add_1-1.i@1967@F@mp_add@partial_sum?1!0&0#10|)))

(assert 

 (= |c:byte_add_1-1.i@1907@F@mp_add@r1?1!0&0#1| 

  ((_ extract 7 0) |c:byte_add_1-1.i@1967@F@mp_add@partial_sum?1!0&0#12|)))

(assert 

 (= |c:byte_add_1-1.i@1941@F@mp_add@carry?1!0&0#7| |c:byte_add_1-1.i@1967@F@mp_add@partial_sum?1!0&0#13|))

(assert 

 (= |c:byte_add_1-1.i@1967@F@mp_add@partial_sum?1!0&0#14| 

  ((_ extract 15 0) 

   (bvadd 

    (concat #b0000000000000000 |c:byte_add_1-1.i@1967@F@mp_add@partial_sum?1!0&0#13|) #b00000000000000000000000011111110))))

(assert 

 (= |goto_symex::guard?0!0&0#8| 

  (ite 

   (bvslt #b00000000000000000000000000000010 $e1) #b1 #b0)))

(assert 

 (= |c:byte_add_1-1.i@1967@F@mp_add@partial_sum?1!0&0#15| 

  ((_ extract 15 0) 

   (bvadd 

    (concat #b000000000000000000000000 |c:byte_add_1-1.i@1873@F@mp_add@b2?1!0&0#1|) 

    (concat #b0000000000000000 |c:byte_add_1-1.i@1967@F@mp_add@partial_sum?1!0&0#14|)))))

(assert 

 (= |c:byte_add_1-1.i@1967@F@mp_add@partial_sum?1!0&0#16| 

  (ite 

   (= #b1 |goto_symex::guard?0!0&0#8|) |c:byte_add_1-1.i@1967@F@mp_add@partial_sum?1!0&0#15| |c:byte_add_1-1.i@1967@F@mp_add@partial_sum?1!0&0#14|)))

(assert 

 (= |goto_symex::guard?0!0&0#9| 

  (ite 

   (bvslt #b00000000000000000000000011111111 

    (concat #b0000000000000000 |c:byte_add_1-1.i@1967@F@mp_add@partial_sum?1!0&0#16|)) #b1 #b0)))

(assert 

 (= |c:byte_add_1-1.i@1967@F@mp_add@partial_sum?1!0&0#17| 

  (bvand #b0000000011111111 |c:byte_add_1-1.i@1967@F@mp_add@partial_sum?1!0&0#16|)))

(assert 

 (= |c:byte_add_1-1.i@1941@F@mp_add@carry?1!0&0#10| 

  (ite 

   (= #b1 |goto_symex::guard?0!0&0#9|) #b0000000000000001 #b0000000000000000)))

(assert 

 (= |c:byte_add_1-1.i@1967@F@mp_add@partial_sum?1!0&0#18| 

  (ite 

   (= #b1 |goto_symex::guard?0!0&0#9|) |c:byte_add_1-1.i@1967@F@mp_add@partial_sum?1!0&0#17| |c:byte_add_1-1.i@1967@F@mp_add@partial_sum?1!0&0#16|)))

(assert 

 (= |c:byte_add_1-1.i@1907@F@mp_add@r2?1!0&0#1| 

  ((_ extract 7 0) |c:byte_add_1-1.i@1967@F@mp_add@partial_sum?1!0&0#18|)))

(assert 

 (= |c:byte_add_1-1.i@1941@F@mp_add@carry?1!0&0#10| |c:byte_add_1-1.i@1967@F@mp_add@partial_sum?1!0&0#19|))

(assert 

 (= |c:byte_add_1-1.i@1967@F@mp_add@partial_sum?1!0&0#20| 

  ((_ extract 15 0) 

   (bvadd 

    (concat #b0000000000000000 |c:byte_add_1-1.i@1967@F@mp_add@partial_sum?1!0&0#19|) #b00000000000000000000000000001101))))

(assert 

 (= |goto_symex::guard?0!0&0#10| 

  (ite 

   (bvslt #b00000000000000000000000000000011 $e1) #b1 #b0)))

(assert 

 (= |c:byte_add_1-1.i@1967@F@mp_add@partial_sum?1!0&0#21| 

  ((_ extract 15 0) 

   (bvadd 

    (concat #b000000000000000000000000 |c:byte_add_1-1.i@1873@F@mp_add@b3?1!0&0#1|) 

    (concat #b0000000000000000 |c:byte_add_1-1.i@1967@F@mp_add@partial_sum?1!0&0#20|)))))

(assert 

 (= |c:byte_add_1-1.i@1967@F@mp_add@partial_sum?1!0&0#22| 

  (ite 

   (= #b1 |goto_symex::guard?0!0&0#10|) |c:byte_add_1-1.i@1967@F@mp_add@partial_sum?1!0&0#21| |c:byte_add_1-1.i@1967@F@mp_add@partial_sum?1!0&0#20|)))

(assert 

 (= |goto_symex::guard?0!0&0#11| 

  (ite 

   (bvslt #b00000000000000000000000011111111 

    (concat #b0000000000000000 |c:byte_add_1-1.i@1967@F@mp_add@partial_sum?1!0&0#22|)) #b1 #b0)))

(assert 

 (= |c:byte_add_1-1.i@1967@F@mp_add@partial_sum?1!0&0#23| 

  (bvand #b0000000011111111 |c:byte_add_1-1.i@1967@F@mp_add@partial_sum?1!0&0#22|)))

(assert 

 (= |c:byte_add_1-1.i@1941@F@mp_add@carry?1!0&0#13| 

  (ite 

   (= #b1 |goto_symex::guard?0!0&0#11|) #b0000000000000001 #b0000000000000000)))

(assert 

 (= |c:byte_add_1-1.i@1967@F@mp_add@partial_sum?1!0&0#24| 

  (ite 

   (= #b1 |goto_symex::guard?0!0&0#11|) |c:byte_add_1-1.i@1967@F@mp_add@partial_sum?1!0&0#23| |c:byte_add_1-1.i@1967@F@mp_add@partial_sum?1!0&0#22|)))

(assert 

 (= |c:byte_add_1-1.i@1907@F@mp_add@r3?1!0&0#1| 

  ((_ extract 7 0) |c:byte_add_1-1.i@1967@F@mp_add@partial_sum?1!0&0#24|)))

(assert 

 (= |goto_symex::guard?0!0&0#12| 

  (bvnot 

   (ite 

    (and 

     (= #b0000000000000000 |c:byte_add_1-1.i@1941@F@mp_add@carry?1!0&0#13|) 

     (not 

      (bvslt #b00000000000000000000000000000100 $e1))) #b1 #b0))))

(assert 

 (= |c:byte_add_1-1.i@1999@F@mp_add@r?1!0&0#1| 

  (bvnot 

   (bvand 

    (bvand 

     (concat 

      (bvnot 

       (concat #b0000000000000000 |c:byte_add_1-1.i@1907@F@mp_add@r1?1!0&0#1|)) 

      (bvnot |c:byte_add_1-1.i@1907@F@mp_add@r0?1!0&0#1|)) 

     (bvnot 

      (concat 

       (concat #b00000000 |c:byte_add_1-1.i@1907@F@mp_add@r2?1!0&0#1|) #b0000000000000000))) 

    (bvnot 

     (concat |c:byte_add_1-1.i@1907@F@mp_add@r3?1!0&0#1| #b000000000000000000000000))))))

(assert 

 (= |c:byte_add_1-1.i@1999@F@mp_add@r?1!0&0#1| |c:byte_add_1-1.i@4460@F@main@r?1!0&0#1|))

(assert 

 (= |c:byte_add_1-1.i@1127@F@__VERIFIER_assert@cond?1!0&0#1| 

  (ite 

   (= |c:byte_add_1-1.i@4460@F@main@r?1!0&0#1| 

    (bvadd |c:byte_add_1-1.i@4460@F@main@b?1!0&0#1| #b00001101111111100101000101100101)) #b00000000000000000000000000000001 #b00000000000000000000000000000000)))

(assert 

 (= |goto_symex::guard?0!0&0#15| 

  (ite 

   (= #b00000000000000000000000000000000 |c:byte_add_1-1.i@1127@F@__VERIFIER_assert@cond?1!0&0#1|) #b1 #b0)))

(assert (= |execution_statet::guard_exec?0!0| #b1))

(assert (= |goto_symex::guard?0!0&0#12| #b1))

(check-sat)

(exit)
